
Welcome to IBM(R) ILOG(R) CPLEX(R) Interactive Optimizer 22.1.1.0
  with Simplex, Mixed Integer & Barrier Optimizers
5725-A06 5725-A29 5724-Y48 5724-Y49 5724-Y54 5724-Y55 5655-Y21
Copyright IBM Corp. 1988, 2022.  All Rights Reserved.

Type 'help' for a list of available commands.
Type 'help' followed by a command name for more
information on commands.

CPLEX> Selected objective sense:  MINIMIZE
Selected objective  name:  00000000
Selected RHS        name:  RHS1
Selected bound      name:  BOUND
Problem 'ee.mps' read.
Read time = 0.03 sec. (3.14 ticks)
CPLEX> New value for time limit in seconds: 7200
CPLEX> New value for parallel optimization mode: -1
CPLEX> New value for default parallel thread count: 40
CPLEX> New value for mixed integer optimality gap tolerance: 1e-13
CPLEX> Version identifier: 22.1.1.0 | 2022-11-28 | 9160aff4d
CPXPARAM_Threads                                 40
CPXPARAM_Parallel                                -1
CPXPARAM_TimeLimit                               7200
CPXPARAM_MIP_Tolerances_MIPGap                   1e-13
Found incumbent of value 0.000000 after 0.00 sec. (0.31 ticks)
Tried aggregator 4 times.
MIP Presolve eliminated 260 rows and 3267 columns.
MIP Presolve modified 5814 coefficients.
Aggregator did 777 substitutions.
Reduced MIP has 3483 rows, 7147 columns, and 26439 nonzeros.
Reduced MIP has 7147 binaries, 0 generals, 0 SOSs, and 0 indicators.
Presolve time = 0.08 sec. (85.46 ticks)
Probing time = 0.03 sec. (5.27 ticks)
Tried aggregator 1 time.
Detecting symmetries...
Reduced MIP has 3483 rows, 7147 columns, and 26439 nonzeros.
Reduced MIP has 7147 binaries, 0 generals, 0 SOSs, and 0 indicators.
Presolve time = 0.02 sec. (20.32 ticks)
Probing fixed 61 vars, tightened 0 bounds.
Probing time = 0.06 sec. (28.87 ticks)
Clique table members: 17105.
MIP emphasis: balance optimality and feasibility.
MIP search method: dynamic search.
Parallel mode: opportunistic, using up to 40 threads.
Root relaxation solution time = 0.11 sec. (103.82 ticks)

        Nodes                                         Cuts/
   Node  Left     Objective  IInf  Best Integer    Best Bound    ItCnt     Gap

*     0+    0                            0.0000  -1.31000e+13              --- 
*     0+    0                      -4.28000e+12  -1.31000e+13           206.08%
*     0+    0                      -5.50000e+12  -1.31000e+13           138.18%
      0     0  -1.30900e+13   107  -5.50000e+12  -1.30900e+13     2243  138.00%
*     0+    0                      -1.30900e+13  -1.30900e+13             0.00%
*     0+    0                      -1.30900e+13  -1.30900e+13             0.00%
      0     0  -1.30900e+13   140  -1.30900e+13     Cuts: 128     2540    0.00%
*     0+    0                      -1.30900e+13  -1.30900e+13             0.00%
      0     0  -1.30900e+13    86  -1.30900e+13      Cuts: 62     3020    0.00%
*     0+    0                      -1.30900e+13  -1.30900e+13             0.00%
      0     0  -1.00000e+75     0  -1.30900e+13  -1.30900e+13     3020    0.00%

Repeating presolve.
Tried aggregator 2 times.
MIP Presolve eliminated 2659 rows and 5859 columns.
MIP Presolve added 22 rows and 0 columns.
MIP Presolve modified 60 coefficients.
Aggregator did 551 substitutions.
Reduced MIP has 295 rows, 663 columns, and 2512 nonzeros.
Reduced MIP has 663 binaries, 0 generals, 0 SOSs, and 0 indicators.
Presolve time = 0.02 sec. (16.29 ticks)
Probing fixed 10 vars, tightened 0 bounds.
Probing time = 0.00 sec. (1.20 ticks)
Tried aggregator 1 time.
MIP Presolve eliminated 0 rows and 10 columns.
Reduced MIP has 295 rows, 653 columns, and 2481 nonzeros.
Reduced MIP has 653 binaries, 0 generals, 0 SOSs, and 0 indicators.
Presolve time = 0.00 sec. (1.45 ticks)
Probing time = 0.00 sec. (1.12 ticks)
Tried aggregator 1 time.
Detecting symmetries...
Reduced MIP has 295 rows, 653 columns, and 2481 nonzeros.
Reduced MIP has 653 binaries, 0 generals, 0 SOSs, and 0 indicators.
Presolve time = 0.00 sec. (1.90 ticks)
Represolve time = 0.04 sec. (42.67 ticks)
Probing time = 0.00 sec. (1.12 ticks)
Clique table members: 970.
MIP emphasis: balance optimality and feasibility.
MIP search method: dynamic search.
Parallel mode: opportunistic, using up to 40 threads.
Root relaxation solution time = 0.01 sec. (6.64 ticks)

        Nodes                                         Cuts/
   Node  Left     Objective  IInf  Best Integer    Best Bound    ItCnt     Gap

*     0+    0                      -1.30900e+13  -1.30900e+13             0.00%
      0     0  -1.30900e+13    41  -1.30900e+13  -1.30900e+13     3406    0.00%
      0     0  -1.30900e+13    20  -1.30900e+13      Cuts: 66     3514    0.00%
*     0+    0                      -1.30900e+13  -1.30900e+13             0.00%
      0     0  -1.30900e+13    54  -1.30900e+13      Cuts: 20     3582    0.00%
      0     0  -1.30900e+13    17  -1.30900e+13      Cuts: 44     3643    0.00%
*     0+    0                      -1.30900e+13  -1.30900e+13             0.00%
      0     0  -1.30900e+13    18  -1.30900e+13       Cuts: 7     3677    0.00%

Repeating presolve.
Tried aggregator 2 times.
MIP Presolve eliminated 246 rows and 579 columns.
MIP Presolve modified 16 coefficients.
Aggregator did 9 substitutions.
Reduced MIP has 40 rows, 65 columns, and 187 nonzeros.
Reduced MIP has 65 binaries, 0 generals, 0 SOSs, and 0 indicators.
Presolve time = 0.00 sec. (0.58 ticks)
Probing fixed 2 vars, tightened 0 bounds.
Probing time = 0.00 sec. (0.04 ticks)
Tried aggregator 1 time.
MIP Presolve eliminated 4 rows and 10 columns.
Reduced MIP has 36 rows, 55 columns, and 169 nonzeros.
Reduced MIP has 55 binaries, 0 generals, 0 SOSs, and 0 indicators.
Presolve time = 0.00 sec. (0.09 ticks)
Probing time = 0.00 sec. (0.03 ticks)
Tried aggregator 1 time.
Detecting symmetries...
Reduced MIP has 36 rows, 55 columns, and 169 nonzeros.
Reduced MIP has 55 binaries, 0 generals, 0 SOSs, and 0 indicators.
Presolve time = 0.00 sec. (0.12 ticks)
Represolve time = 0.08 sec. (11.25 ticks)
Probing time = 0.00 sec. (0.03 ticks)
Clique table members: 85.
MIP emphasis: balance optimality and feasibility.
MIP search method: dynamic search.
Parallel mode: opportunistic, using up to 40 threads.
Root relaxation solution time = 0.00 sec. (0.25 ticks)

        Nodes                                         Cuts/
   Node  Left     Objective  IInf  Best Integer    Best Bound    ItCnt     Gap

*     0+    0                      -1.30900e+13  -1.30900e+13             0.00%
      0     0  -1.30900e+13    15  -1.30900e+13  -1.30900e+13     3704    0.00%
      0     0        cutoff        -1.30900e+13                   3705    0.00%
Elapsed time = 1.33 sec. (947.99 ticks, tree = 0.01 MB, solutions = 9)

Clique cuts applied:  14
Cover cuts applied:  7
Mixed integer rounding cuts applied:  3
Lift and project cuts applied:  3
Gomory fractional cuts applied:  6

Root node processing (before b&c):
  Real time             =    1.33 sec. (948.79 ticks)
Parallel b&c, 40 threads:
  Real time             =    0.00 sec. (0.00 ticks)
  Sync time (average)   =    0.00 sec.
  Wait time (average)   =    0.00 sec.
                          ------------
Total (root+branch&cut) =    1.33 sec. (948.79 ticks)

Solution pool: 9 solutions saved.

MIP - Integer optimal solution:  Objective = -1.3089999088e+13
Solution time =    1.36 sec.  Iterations = 3705  Nodes = 0
Deterministic time = 948.83 ticks  (696.17 ticks/sec)

CPLEX> Solution 'p10' written to file 'ee.sol'.
CPLEX> 